w = 30;
n = 28;
measures = [|9, 24,
|9, 8,
|9, 11,
|9, 17,
|4, 24,
|4, 8,
|1, 6,
|1, 5,
|4, 17,
|3, 6,
|3, 5,
|12, 5,
|12, 13,
|14, 14,
|2, 14,
|2, 2,
|8, 3,
|8, 9,
|12, 14,
|12, 2,
|6, 3,
|6, 9,
|2, 5,
|2, 13,
|3, 18,
|3, 14,
|3, 16,
|3, 12,
|];
initial_x = [0, 9, 18, 0, 9, 13, 17, 18, 19, 23, 26, 0, 12, 0, 14, 16, 18, 0, 8, 0, 12, 18, 24, 26, 0, 3, 6, 9];
initial_y = [0, 0, 0, 24, 24, 24, 24, 24, 24, 24, 24, 48, 48, 61, 61, 61, 61, 75, 75, 89, 89, 89, 89, 89, 102, 102, 102, 102];